NAME: tsp15_17
COMMENT: 15-tsp problem (Padberg/Rinaldi)
TYPE: TSP
DIMENSION: 15
EDGE_WEIGHT_TYPE : EUC_2D
NODE_COORD_SECTION
1 0 21
2 8 30
3 37 19
4 34 20
5 0 19
6 27 22
7 28 26
8 35 29
9 14 24
10 6 19
11 19 15
12 39 13
13 11 37
14 21 14
15 11 11
